language Essence 1.3

letting blksize_delta be function(1 --> 4, 2 --> 4, 3 --> 2, 4 --> 3, 5 --> 3, 6 --> 2)
letting maxcars be function(1 --> 10, 2 --> 10, 3 --> 10, 4 --> 10, 5 --> 10, 6 --> 10)
letting n_cars be 262
letting n_classes be 134
letting n_options be 6
letting quantity be
        function(1 --> 101, 2 --> 20, 3 --> 1, 4 --> 1, 5 --> 1, 6 --> 2, 7 --> 4, 8 --> 1, 9 --> 5, 10 --> 2, 11 --> 1,
                 12 --> 1, 13 --> 1, 14 --> 1, 15 --> 1, 16 --> 1, 17 --> 1, 18 --> 1, 19 --> 1, 20 --> 1, 21 --> 1,
                 22 --> 1, 23 --> 1, 24 --> 1, 25 --> 1, 26 --> 1, 27 --> 1, 28 --> 1, 29 --> 1, 30 --> 1, 31 --> 1,
                 32 --> 1, 33 --> 1, 34 --> 1, 35 --> 1, 36 --> 1, 37 --> 1, 38 --> 1, 39 --> 1, 40 --> 1, 41 --> 1,
                 42 --> 1, 43 --> 1, 44 --> 1, 45 --> 1, 46 --> 1, 47 --> 1, 48 --> 1, 49 --> 1, 50 --> 1, 51 --> 1,
                 52 --> 1, 53 --> 1, 54 --> 1, 55 --> 1, 56 --> 1, 57 --> 1, 58 --> 1, 59 --> 1, 60 --> 1, 61 --> 1,
                 62 --> 1, 63 --> 1, 64 --> 1, 65 --> 1, 66 --> 1, 67 --> 1, 68 --> 1, 69 --> 1, 70 --> 1, 71 --> 1,
                 72 --> 1, 73 --> 1, 74 --> 1, 75 --> 1, 76 --> 1, 77 --> 1, 78 --> 1, 79 --> 1, 80 --> 1, 81 --> 1,
                 82 --> 1, 83 --> 1, 84 --> 1, 85 --> 1, 86 --> 1, 87 --> 1, 88 --> 1, 89 --> 1, 90 --> 1, 91 --> 1,
                 92 --> 1, 93 --> 1, 94 --> 1, 95 --> 1, 96 --> 1, 97 --> 1, 98 --> 1, 99 --> 1, 100 --> 1, 101 --> 1,
                 102 --> 1, 103 --> 1, 104 --> 1, 105 --> 1, 106 --> 1, 107 --> 1, 108 --> 1, 109 --> 1, 110 --> 1,
                 111 --> 1, 112 --> 1, 113 --> 1, 114 --> 1, 115 --> 1, 116 --> 1, 117 --> 1, 118 --> 1, 119 --> 1,
                 120 --> 1, 121 --> 1, 122 --> 1, 123 --> 1, 124 --> 1, 125 --> 1, 126 --> 1, 127 --> 1, 128 --> 1,
                 129 --> 1, 130 --> 1, 131 --> 1, 132 --> 1, 133 --> 1, 134 --> 1)
letting usage be
        relation((1, 2), (1, 4), (1, 5), (2, 4), (2, 6), (3, 2), (3, 5), (4, 1), (4, 2), (4, 4), (5, 2), (5, 6), (6, 1),
                 (6, 5), (6, 6), (7, 4), (8, 1), (8, 2), (8, 3), (8, 4), (8, 5), (8, 6), (9, 2), (9, 4), (9, 5), (9, 6),
                 (10, 1), (10, 5), (10, 6), (11, 2), (11, 3), (11, 5), (12, 1), (12, 2), (12, 3), (13, 1), (13, 2),
                 (13, 5), (13, 6), (14, 3), (14, 5), (14, 6), (15, 1), (15, 2), (15, 3), (15, 5), (16, 4), (17, 1),
                 (17, 2), (17, 4), (18, 1), (18, 3), (18, 4), (18, 5), (18, 6), (19, 4), (19, 6), (20, 1), (20, 4),
                 (20, 6), (21, 5), (21, 6), (22, 1), (23, 3), (23, 4), (23, 5), (23, 6), (24, 3), (24, 5), (25, 3),
                 (26, 4), (26, 5), (27, 1), (27, 2), (27, 4), (27, 5), (27, 6), (28, 4), (28, 6), (29, 6), (30, 4),
                 (31, 4), (31, 5), (31, 6), (32, 1), (32, 3), (32, 6), (33, 1), (33, 3), (33, 4), (33, 6), (34, 3),
                 (35, 3), (35, 5), (36, 1), (36, 2), (36, 3), (37, 6), (38, 1), (38, 3), (38, 4), (38, 6), (39, 4),
                 (39, 5), (39, 6), (40, 1), (41, 2), (41, 3), (41, 4), (42, 1), (42, 5), (43, 1), (43, 3), (44, 1),
                 (44, 4), (44, 5), (45, 2), (45, 4), (46, 2), (46, 3), (46, 5), (46, 6), (47, 3), (47, 6), (48, 3),
                 (49, 2), (50, 2), (51, 2), (51, 5), (52, 1), (52, 5), (53, 2), (53, 4), (53, 5), (54, 3), (54, 6),
                 (55, 1), (55, 3), (55, 4), (56, 1), (56, 2), (56, 3), (56, 5), (57, 1), (57, 3), (57, 5), (58, 4),
                 (58, 6), (59, 6), (60, 1), (60, 6), (61, 5), (61, 6), (62, 6), (63, 2), (64, 1), (64, 2), (64, 3),
                 (64, 4), (64, 6), (65, 1), (65, 2), (65, 4), (65, 6), (66, 1), (66, 3), (66, 5), (66, 6), (67, 1),
                 (67, 2), (67, 3), (67, 4), (67, 6), (68, 3), (69, 1), (69, 2), (69, 5), (70, 5), (70, 6), (71, 1),
                 (71, 2), (71, 3), (71, 6), (72, 1), (72, 3), (72, 6), (73, 1), (73, 2), (73, 5), (74, 2), (74, 3),
                 (74, 4), (75, 4), (75, 6), (76, 3), (76, 6), (77, 4), (78, 1), (78, 4), (78, 5), (79, 4), (79, 5),
                 (79, 6), (80, 1), (80, 3), (80, 5), (81, 1), (81, 3), (81, 5), (81, 6), (82, 3), (82, 5), (82, 6),
                 (83, 5), (84, 1), (84, 2), (84, 3), (84, 4), (84, 6), (85, 1), (85, 3), (85, 4), (85, 5), (85, 6),
                 (86, 1), (86, 3), (86, 4), (86, 5), (86, 6), (87, 5), (87, 6), (88, 1), (88, 2), (89, 1), (89, 2),
                 (89, 3), (89, 4), (89, 5), (89, 6), (90, 4), (90, 5), (91, 1), (91, 4), (91, 5), (92, 1), (92, 5),
                 (92, 6), (93, 1), (93, 2), (93, 4), (93, 5), (94, 2), (94, 3), (94, 4), (94, 6), (95, 2), (95, 3),
                 (95, 5), (96, 2), (96, 5), (97, 2), (97, 4), (98, 1), (98, 2), (98, 5), (99, 1), (99, 4), (99, 5),
                 (99, 6), (100, 1), (100, 2), (100, 3), (100, 5), (100, 6), (101, 1), (101, 2), (101, 5), (102, 3),
                 (102, 4), (103, 5), (104, 1), (104, 2), (104, 3), (105, 2), (105, 6), (106, 1), (106, 2), (106, 3),
                 (106, 6), (107, 3), (107, 6), (108, 3), (108, 6), (109, 1), (109, 5), (109, 6), (110, 4), (110, 5),
                 (110, 6), (111, 4), (111, 6), (112, 1), (112, 3), (112, 6), (113, 2), (113, 3), (113, 4), (113, 6),
                 (114, 6), (115, 6), (116, 6), (117, 3), (117, 4), (117, 6), (118, 1), (118, 2), (118, 5), (118, 6),
                 (119, 2), (119, 3), (119, 6), (120, 6), (121, 1), (121, 3), (121, 4), (121, 6), (122, 2), (122, 6),
                 (123, 3), (123, 5), (123, 6), (124, 1), (124, 2), (124, 6), (125, 3), (125, 4), (125, 5), (125, 6),
                 (126, 1), (126, 2), (126, 6), (127, 1), (127, 2), (127, 4), (127, 6), (128, 2), (128, 3), (128, 5),
                 (128, 6), (129, 1), (129, 2), (129, 4), (129, 6), (130, 1), (130, 3), (130, 4), (130, 5), (130, 6),
                 (131, 4), (131, 6), (132, 5), (132, 6), (133, 2), (133, 4), (133, 6), (134, 1), (134, 2), (134, 3),
                 (134, 4), (134, 5), (134, 6))
$ Visualisation for usage
$   1   2
$   1   4
$   1   5
$   2   4
$   2   6
$   3   2
$   3   5
$   4   1
$   4   2
$   4   4
$   5   2
$   5   6
$   6   1
$   6   5
$   6   6
$   7   4
$   8   1
$   8   2
$   8   3
$   8   4
$   8   5
$   8   6
$   9   2
$   9   4
$   9   5
$   9   6
$  10   1
$  10   5
$  10   6
$  11   2
$  11   3
$  11   5
$  12   1
$  12   2
$  12   3
$  13   1
$  13   2
$  13   5
$  13   6
$  14   3
$  14   5
$  14   6
$  15   1
$  15   2
$  15   3
$  15   5
$  16   4
$  17   1
$  17   2
$  17   4
$  18   1
$  18   3
$  18   4
$  18   5
$  18   6
$  19   4
$  19   6
$  20   1
$  20   4
$  20   6
$  21   5
$  21   6
$  22   1
$  23   3
$  23   4
$  23   5
$  23   6
$  24   3
$  24   5
$  25   3
$  26   4
$  26   5
$  27   1
$  27   2
$  27   4
$  27   5
$  27   6
$  28   4
$  28   6
$  29   6
$  30   4
$  31   4
$  31   5
$  31   6
$  32   1
$  32   3
$  32   6
$  33   1
$  33   3
$  33   4
$  33   6
$  34   3
$  35   3
$  35   5
$  36   1
$  36   2
$  36   3
$  37   6
$  38   1
$  38   3
$  38   4
$  38   6
$  39   4
$  39   5
$  39   6
$  40   1
$  41   2
$  41   3
$  41   4
$  42   1
$  42   5
$  43   1
$  43   3
$  44   1
$  44   4
$  44   5
$  45   2
$  45   4
$  46   2
$  46   3
$  46   5
$  46   6
$  47   3
$  47   6
$  48   3
$  49   2
$  50   2
$  51   2
$  51   5
$  52   1
$  52   5
$  53   2
$  53   4
$  53   5
$  54   3
$  54   6
$  55   1
$  55   3
$  55   4
$  56   1
$  56   2
$  56   3
$  56   5
$  57   1
$  57   3
$  57   5
$  58   4
$  58   6
$  59   6
$  60   1
$  60   6
$  61   5
$  61   6
$  62   6
$  63   2
$  64   1
$  64   2
$  64   3
$  64   4
$  64   6
$  65   1
$  65   2
$  65   4
$  65   6
$  66   1
$  66   3
$  66   5
$  66   6
$  67   1
$  67   2
$  67   3
$  67   4
$  67   6
$  68   3
$  69   1
$  69   2
$  69   5
$  70   5
$  70   6
$  71   1
$  71   2
$  71   3
$  71   6
$  72   1
$  72   3
$  72   6
$  73   1
$  73   2
$  73   5
$  74   2
$  74   3
$  74   4
$  75   4
$  75   6
$  76   3
$  76   6
$  77   4
$  78   1
$  78   4
$  78   5
$  79   4
$  79   5
$  79   6
$  80   1
$  80   3
$  80   5
$  81   1
$  81   3
$  81   5
$  81   6
$  82   3
$  82   5
$  82   6
$  83   5
$  84   1
$  84   2
$  84   3
$  84   4
$  84   6
$  85   1
$  85   3
$  85   4
$  85   5
$  85   6
$  86   1
$  86   3
$  86   4
$  86   5
$  86   6
$  87   5
$  87   6
$  88   1
$  88   2
$  89   1
$  89   2
$  89   3
$  89   4
$  89   5
$  89   6
$  90   4
$  90   5
$  91   1
$  91   4
$  91   5
$  92   1
$  92   5
$  92   6
$  93   1
$  93   2
$  93   4
$  93   5
$  94   2
$  94   3
$  94   4
$  94   6
$  95   2
$  95   3
$  95   5
$  96   2
$  96   5
$  97   2
$  97   4
$  98   1
$  98   2
$  98   5
$  99   1
$  99   4
$  99   5
$  99   6
$ 100   1
$ 100   2
$ 100   3
$ 100   5
$ 100   6
$ 101   1
$ 101   2
$ 101   5
$ 102   3
$ 102   4
$ 103   5
$ 104   1
$ 104   2
$ 104   3
$ 105   2
$ 105   6
$ 106   1
$ 106   2
$ 106   3
$ 106   6
$ 107   3
$ 107   6
$ 108   3
$ 108   6
$ 109   1
$ 109   5
$ 109   6
$ 110   4
$ 110   5
$ 110   6
$ 111   4
$ 111   6
$ 112   1
$ 112   3
$ 112   6
$ 113   2
$ 113   3
$ 113   4
$ 113   6
$ 114   6
$ 115   6
$ 116   6
$ 117   3
$ 117   4
$ 117   6
$ 118   1
$ 118   2
$ 118   5
$ 118   6
$ 119   2
$ 119   3
$ 119   6
$ 120   6
$ 121   1
$ 121   3
$ 121   4
$ 121   6
$ 122   2
$ 122   6
$ 123   3
$ 123   5
$ 123   6
$ 124   1
$ 124   2
$ 124   6
$ 125   3
$ 125   4
$ 125   5
$ 125   6
$ 126   1
$ 126   2
$ 126   6
$ 127   1
$ 127   2
$ 127   4
$ 127   6
$ 128   2
$ 128   3
$ 128   5
$ 128   6
$ 129   1
$ 129   2
$ 129   4
$ 129   6
$ 130   1
$ 130   3
$ 130   4
$ 130   5
$ 130   6
$ 131   4
$ 131   6
$ 132   5
$ 132   6
$ 133   2
$ 133   4
$ 133   6
$ 134   1
$ 134   2
$ 134   3
$ 134   4
$ 134   5
$ 134   6

